c 61_win_checker.cnf
c
c field = 61
c formula set type = win_checker
c
p cnf 5 24
122 
124 
126 
128 
-130 
123 
125 
127 
129 
-131 
0 
30 
60 
90 
-150 
1 
31 
61 
91 
-151 
30 
60 
90 
150 
-0 
31 
61 
91 
151 
-1 
30 
60 
90 
150 
-180 
31 
61 
91 
151 
-181 
60 
90 
150 
180 
-30 
61 
91 
151 
181 
-31 
60 
90 
150 
180 
-210 
61 
91 
151 
181 
-211 
90 
150 
180 
210 
-60 
91 
151 
181 
211 
-61 
90 
150 
180 
210 
-240 
91 
151 
181 
211 
-241 
150 
180 
210 
240 
-90 
151 
181 
211 
241 
-91 
150 
180 
210 
240 
-270 
151 
181 
211 
241 
-271 
152 
184 
216 
248 
-280 
153 
185 
217 
249 
-281 
8 
36 
64 
92 
-120 
9 
37 
65 
93 
-121 
